#	19.8	T IR	T Sens	Mag  	Hz   	Alt	Azi  	Lat    	Lon   	SL m
2018-09-26 	21:08:44	26.73	28.51	12.85	603	22	2	0	0	0
2018-09-26 	21:08:45	26.79	28.55	12.71	685	22	3	0	0	0
2018-09-26 	21:08:47	26.77	28.51	12.82	619	22	3	0	0	0
2018-09-26 	21:08:48	26.79	28.57	13.07	492	22	0	0	0	0
2018-09-26 	21:08:49	26.79	28.53	12.53	809	22	1	0	0	0
2018-09-26 	21:08:50	26.77	28.55	12.59	766	22	0	0	0	0
2018-09-26 	21:08:51	26.73	28.51	12.83	614	40	0	0	0	0
2018-09-26 	21:08:52	26.77	28.53	13.44	350	40	359	0	0	0
2018-09-26 	21:08:53	26.79	28.55	12.81	625	40	358	0	0	0
2018-09-26 	21:08:54	26.77	28.53	12.62	745	40	358	0	0	0
2018-09-26 	21:08:55	26.77	28.55	13.72	270	42	1	0	0	0
2018-09-26 	21:08:56	26.83	28.57	13.37	373	41	2	0	0	0
2018-09-26 	21:08:57	26.77	28.55	12.25	1047	41	1	0	0	0
2018-09-26 	21:08:58	26.77	28.55	12.28	1019	41	2	0	0	0
2018-09-26 	21:08:59	26.77	28.57	11.98	1343	41	2	0	0	0
2018-09-26 	21:09:00	26.73	28.59	11.62	1871	41	1	0	0	0
2018-09-26 	21:09:01	26.77	28.57	11.76	1644	47	349	0	0	0
2018-09-26 	21:09:02	26.77	28.59	14.27	163	61	0	0	0	0
2018-09-26 	21:09:03	26.73	28.57	14.2	174	61	1	0	0	0
2018-09-26 	21:09:04	26.79	28.59	13.06	497	61	0	0	0	0
2018-09-26 	21:09:05	26.71	28.59	12.59	766	61	0	0	0	0
2018-09-26 	21:09:06	26.77	28.59	12.67	711	61	1	0	0	0
2018-09-26 	21:09:07	26.73	28.61	12.24	1057	61	0	0	0	0
2018-09-26 	21:09:08	26.77	28.59	12	1318	61	359	0	0	0
2018-09-26 	21:09:09	26.77	28.61	11.69	1754	61	359	0	0	0
2018-09-26 	21:09:11	26.77	28.61	11.73	1690	61	359	0	0	0
2018-09-26 	21:09:12	26.71	28.63	12.75	661	79	11	0	0	0
2018-09-26 	21:09:13	26.77	28.61	13.39	366	79	11	0	0	0
2018-09-26 	21:09:14	26.73	28.59	13.4	363	79	11	0	0	0
2018-09-26 	21:09:15	26.65	28.61	13.37	373	79	10	0	0	0
2018-09-26 	21:09:17	26.77	28.63	13.1	479	79	10	0	0	0
2018-09-26 	21:09:18	26.71	28.63	12.18	1117	79	9	0	0	0
2018-09-26 	21:09:19	26.79	28.63	11.94	1393	79	11	0	0	0
2018-09-26 	21:09:20	26.77	28.65	11.83	1542	79	10	0	0	0
2018-09-26 	21:09:21	26.77	28.63	11.98	1343	79	11	0	0	0
2018-09-26 	21:09:22	26.79	28.63	13.45	347	79	154	0	0	0
2018-09-26 	21:09:23	26.79	28.63	13.82	247	81	171	0	0	0
2018-09-26 	21:09:24	26.77	28.65	13.59	305	80	170	0	0	0
2018-09-26 	21:09:25	26.79	28.67	13.14	461	81	171	0	0	0
2018-09-26 	21:09:26	26.79	28.65	13.05	501	80	171	0	0	0
2018-09-26 	21:09:27	26.79	28.65	12.88	586	80	171	0	0	0
2018-09-26 	21:09:28	26.77	28.65	12.52	817	81	170	0	0	0
2018-09-26 	21:09:29	26.83	28.67	12.28	1019	81	172	0	0	0
2018-09-26 	21:09:31	26.71	28.67	12.32	982	81	171	0	0	0
2018-09-26 	21:09:32	26.73	28.67	12.36	946	81	170	0	0	0
2018-09-26 	21:09:33	26.79	28.67	12.71	685	81	187	0	0	0
2018-09-26 	21:09:34	26.85	28.67	13	525	62	194	0	0	0
2018-09-26 	21:09:35	26.83	28.67	12.95	550	62	193	0	0	0
2018-09-26 	21:09:36	26.91	28.69	13.03	511	62	193	0	0	0
2018-09-26 	21:09:37	26.91	28.69	13.4	363	61	193	0	0	0
2018-09-26 	21:09:38	26.87	28.67	13.41	360	62	193	0	0	0
2018-09-26 	21:09:39	26.91	28.73	12.54	802	62	193	0	0	0
2018-09-26 	21:09:40	26.93	28.69	12.29	1009	62	193	0	0	0
2018-09-26 	21:09:41	26.91	28.73	12.05	1259	62	192	0	0	0
2018-09-26 	21:09:42	26.87	28.75	11.95	1380	62	193	0	0	0
2018-09-26 	21:09:43	26.93	28.73	12.22	1076	62	193	0	0	0
2018-09-26 	21:09:44	27.29	28.73	12.74	667	41	196	0	0	0
2018-09-26 	21:09:45	27.31	28.75	13.09	483	41	198	0	0	0
2018-09-26 	21:09:46	27.37	28.73	13.42	356	41	198	0	0	0
2018-09-26 	21:09:47	27.31	28.75	13.67	283	41	197	0	0	0
2018-09-26 	21:09:48	27.31	28.75	13.4	363	41	196	0	0	0
2018-09-26 	21:09:49	27.25	28.75	12.74	667	41	196	0	0	0
2018-09-26 	21:09:50	27.35	28.77	12.45	871	40	197	0	0	0
2018-09-26 	21:09:51	27.29	28.75	12.24	1057	41	197	0	0	0
2018-09-26 	21:09:52	27.25	28.77	12.13	1169	41	195	0	0	0
2018-09-26 	21:09:53	27.25	28.75	12.34	964	40	195	0	0	0
2018-09-26 	21:09:54	27.69	28.75	12.91	570	23	193	0	0	0
2018-09-26 	21:09:55	28.01	28.77	13.63	294	20	192	0	0	0
2018-09-26 	21:09:57	27.99	28.77	13.92	225	20	193	0	0	0
2018-09-26 	21:09:58	28.01	28.79	12.69	698	19	190	0	0	0
2018-09-26 	21:09:59	28.05	28.81	12.51	824	19	190	0	0	0
2018-09-26 	21:10:00	28.01	28.81	12.58	773	19	190	0	0	0
2018-09-26 	21:10:02	28.01	28.77	12.16	1138	19	190	0	0	0
2018-09-26 	21:10:03	28.05	28.81	12.13	1169	19	191	0	0	0
2018-09-26 	21:10:04	27.93	28.79	13.13	466	19	190	0	0	0
2018-09-26 	21:10:06	26.67	28.83	14.01	207	58	5	0	0	0
2018-09-26 	21:10:07	26.67	28.81	12.35	955	20	19	0	0	0
2018-09-26 	21:10:08	26.59	28.83	12.93	560	22	33	0	0	0
2018-09-26 	21:10:09	26.53	28.83	13.28	406	22	34	0	0	0
2018-09-26 	21:10:10	26.59	28.85	12.52	817	22	34	0	0	0
2018-09-26 	21:10:11	26.55	28.85	12.28	1019	22	33	0	0	0
2018-09-26 	21:10:12	26.59	28.83	12.2	1096	22	33	0	0	0
2018-09-26 	21:10:13	26.61	28.83	12.35	955	22	33	0	0	0
2018-09-26 	21:10:14	26.61	28.83	14.04	201	23	32	0	0	0
2018-09-26 	21:10:15	26.61	28.85	13.66	286	22	34	0	0	0
2018-09-26 	21:10:16	26.55	28.85	13.61	299	23	34	0	0	0
2018-09-26 	21:10:17	26.61	28.83	13.61	299	22	33	0	0	0
2018-09-26 	21:10:18	26.61	28.85	13.51	328	37	41	0	0	0
2018-09-26 	21:10:22	27.23	28.89	11.71	1722	41	33	0	0	0
2018-09-26 	21:10:23	27.69	28.87	11.65	1820	41	35	0	0	0
2018-09-26 	21:10:24	27.23	28.87	12.07	1236	42	33	0	0	0
2018-09-26 	21:10:25	27.23	28.87	13.02	515	42	34	0	0	0
2018-09-26 	21:10:26	27.35	28.87	13.88	233	41	35	0	0	0
2018-09-26 	21:10:27	27.23	28.85	13.99	211	42	34	0	0	0
2018-09-26 	21:10:28	26.97	28.89	13.55	316	42	35	0	0	0
2018-09-26 	21:10:29	26.67	28.91	12.8	631	42	35	0	0	0
2018-09-26 	21:10:30	26.67	28.89	12.17	1127	61	30	0	0	0
2018-09-26 	21:10:31	26.67	28.91	12.13	1169	61	29	0	0	0
2018-09-26 	21:10:32	26.65	28.91	11.73	1690	61	30	0	0	0
2018-09-26 	21:10:33	26.65	28.91	11.73	1690	61	31	0	0	0
2018-09-26 	21:10:34	26.65	28.91	12.08	1225	61	32	0	0	0
2018-09-26 	21:10:35	26.67	28.93	14.02	205	61	30	0	0	0
2018-09-26 	21:10:36	26.67	28.89	13.54	319	61	31	0	0	0
2018-09-26 	21:10:37	26.59	28.91	13.16	453	61	30	0	0	0
2018-09-26 	21:10:38	26.71	28.93	13.19	441	61	29	0	0	0
2018-09-26 	21:10:39	26.65	28.93	12.83	614	79	35	0	0	0
2018-09-26 	21:10:40	26.71	28.99	12.62	745	79	36	0	0	0
2018-09-26 	21:10:42	26.71	28.91	12	1318	79	38	0	0	0
2018-09-26 	21:10:43	26.61	28.93	12.09	1213	80	37	0	0	0
2018-09-26 	21:10:45	26.71	28.97	13.37	373	79	38	0	0	0
2018-09-26 	21:10:46	26.71	28.97	13.15	457	79	37	0	0	0
2018-09-26 	21:10:47	26.67	29.01	13.15	457	79	37	0	0	0
2018-09-26 	21:10:48	26.67	28.97	13.22	429	79	37	0	0	0
2018-09-26 	21:10:49	26.67	28.99	12.86	597	86	76	0	0	0
2018-09-26 	21:10:50	26.67	29.01	13.06	497	81	190	0	0	0
2018-09-26 	21:10:51	26.71	28.97	12.53	809	80	191	0	0	0
2018-09-26 	21:10:52	26.77	29.01	12.18	1117	81	191	0	0	0
2018-09-26 	21:10:53	26.73	29.01	12.17	1127	80	191	0	0	0
2018-09-26 	21:10:54	26.73	29.01	12.29	1009	80	193	0	0	0
2018-09-26 	21:10:55	26.73	28.99	13.14	461	80	193	0	0	0
2018-09-26 	21:10:56	26.67	28.99	13.44	350	81	191	0	0	0
2018-09-26 	21:10:57	26.71	29.01	13.73	268	80	191	0	0	0
2018-09-26 	21:10:58	26.79	29.01	14.01	207	81	193	0	0	0
2018-09-26 	21:10:59	26.71	29.01	13.46	344	80	190	0	0	0
2018-09-26 	21:11:00	26.79	29.03	12.79	637	61	213	0	0	0
2018-09-26 	21:11:01	26.79	29.01	11.99	1330	61	213	0	0	0
2018-09-26 	21:11:02	26.77	29.01	11.69	1754	61	212	0	0	0
2018-09-26 	21:11:03	26.79	29.03	11.68	1770	61	213	0	0	0
2018-09-26 	21:11:04	26.79	29.05	11.71	1722	61	213	0	0	0
2018-09-26 	21:11:05	26.79	29.03	13.35	380	61	213	0	0	0
2018-09-26 	21:11:06	26.77	29.03	14.13	185	61	212	0	0	0
2018-09-26 	21:11:07	26.83	29.07	13.03	511	61	213	0	0	0
2018-09-26 	21:11:08	26.73	29.05	13.09	483	61	213	0	0	0
2018-09-26 	21:11:09	26.73	29.03	12.87	592	61	213	0	0	0
2018-09-26 	21:11:10	26.85	29.05	12.61	752	41	221	0	0	0
2018-09-26 	21:11:11	26.97	29.07	12.76	655	42	222	0	0	0
2018-09-26 	21:11:12	26.91	29.07	12.93	560	41	222	0	0	0
2018-09-26 	21:11:14	26.91	29.07	12.66	718	41	221	0	0	0
2018-09-26 	21:11:15	26.93	29.09	14	209	40	222	0	0	0
2018-09-26 	21:11:16	26.93	29.09	13.72	270	41	222	0	0	0
2018-09-26 	21:11:17	26.97	29.07	13.5	331	42	224	0	0	0
2018-09-26 	21:11:20	26.91	29.11	13.18	445	33	224	0	0	0
2018-09-26 	21:11:21	27.17	29.11	12.54	802	20	224	0	0	0
2018-09-26 	21:11:22	27.15	29.11	12.42	895	19	223	0	0	0
2018-09-26 	21:11:23	27.15	29.11	12.46	863	20	224	0	0	0
2018-09-26 	21:11:24	27.25	29.13	12.49	839	19	224	0	0	0
2018-09-26 	21:11:25	27.21	29.13	12.69	698	19	223	0	0	0
2018-09-26 	21:11:27	27.21	29.13	13.16	453	19	222	0	0	0
2018-09-26 	21:11:28	27.25	29.15	13.33	387	19	223	0	0	0
2018-09-26 	21:11:29	27.17	29.13	12.72	679	19	223	0	0	0
2018-09-26 	21:11:30	27.25	29.13	12.75	661	19	222	0	0	0
2018-09-26 	21:11:31	26.77	29.15	12.89	581	61	221	0	0	0
2018-09-26 	21:11:32	26.59	29.15	12.9	575	69	20	0	0	0
2018-09-26 	21:11:33	26.53	29.15	12.53	809	26	38	0	0	0
2018-09-26 	21:11:34	26.59	29.21	12.32	982	23	82	0	0	0
2018-09-26 	21:11:35	26.59	29.19	12.14	1159	23	83	0	0	0
2018-09-26 	21:11:36	26.65	29.21	12.67	711	23	83	0	0	0
2018-09-26 	21:11:37	26.53	29.15	13.06	497	23	84	0	0	0
2018-09-26 	21:11:38	26.61	29.21	13.25	417	22	84	0	0	0
2018-09-26 	21:11:39	26.65	29.19	12.74	667	23	83	0	0	0
2018-09-26 	21:11:40	26.59	29.19	12.61	752	23	83	0	0	0
2018-09-26 	21:11:41	26.67	29.21	12.47	855	23	83	0	0	0
2018-09-26 	21:11:42	26.59	29.19	11.91	1432	23	84	0	0	0
2018-09-26 	21:11:43	26.61	29.21	12.09	1213	22	84	0	0	0
2018-09-26 	21:11:44	26.59	29.21	11.9	1445	27	87	0	0	0
2018-09-26 	21:11:45	26.59	29.23	11.78	1614	41	85	0	0	0
2018-09-26 	21:11:46	26.55	29.23	11.73	1690	40	84	0	0	0
2018-09-26 	21:11:47	26.53	29.21	12.29	1009	41	83	0	0	0
2018-09-26 	21:11:48	26.55	29.21	13.06	497	40	87	0	0	0
2018-09-26 	21:11:49	26.59	29.23	12.91	570	41	85	0	0	0
2018-09-26 	21:11:50	26.61	29.23	12.64	731	41	84	0	0	0
2018-09-26 	21:11:51	26.59	29.21	12.28	1019	42	83	0	0	0
2018-09-26 	21:11:52	26.59	29.23	12	1318	41	84	0	0	0
2018-09-26 	21:11:53	26.61	29.21	11.87	1486	41	84	0	0	0
2018-09-26 	21:11:54	26.61	29.23	11.76	1644	42	85	0	0	0
2018-09-26 	21:11:55	26.55	29.23	11.66	1803	60	79	0	0	0
2018-09-26 	21:11:56	26.61	29.25	11.98	1343	60	81	0	0	0
2018-09-26 	21:11:57	26.59	29.29	13	525	61	81	0	0	0
2018-09-26 	21:11:58	26.59	29.23	13.35	380	61	83	0	0	0
2018-09-26 	21:11:59	26.59	29.27	13.24	421	61	84	0	0	0
2018-09-26 	21:12:00	26.55	29.27	12.67	711	61	83	0	0	0
2018-09-26 	21:12:01	26.59	29.27	12.12	1180	61	83	0	0	0
2018-09-26 	21:12:02	26.61	29.27	11.84	1528	61	83	0	0	0
2018-09-26 	21:12:03	26.61	29.29	11.65	1820	61	82	0	0	0
2018-09-26 	21:12:04	26.53	29.27	11.62	1871	61	84	0	0	0
2018-09-26 	21:12:05	26.55	29.27	11.65	1820	80	69	0	0	0
2018-09-26 	21:12:06	26.59	29.29	12.35	955	78	79	0	0	0
2018-09-26 	21:12:07	26.61	29.29	13.95	219	79	82	0	0	0
2018-09-26 	21:12:08	26.61	29.29	13.83	244	79	81	0	0	0
2018-09-26 	21:12:09	26.59	29.29	12.83	614	79	80	0	0	0
2018-09-26 	21:12:10	26.61	29.31	12.89	581	79	81	0	0	0
2018-09-26 	21:12:11	26.59	29.29	12.23	1067	79	83	0	0	0
2018-09-26 	21:12:12	26.55	29.29	12.04	1271	79	82	0	0	0
2018-09-26 	21:12:13	26.59	29.31	11.64	1837	79	80	0	0	0
2018-09-26 	21:12:14	26.61	29.31	11.68	1770	79	81	0	0	0
2018-09-26 	21:12:15	26.61	29.33	11.72	1706	77	99	0	0	0
2018-09-26 	21:12:16	26.65	29.33	12.3	1000	80	223	0	0	0
2018-09-26 	21:12:17	26.65	29.31	13.17	449	80	224	0	0	0
2018-09-26 	21:12:18	26.59	29.31	13.51	328	80	223	0	0	0
2018-09-26 	21:12:20	26.65	29.35	12.45	871	80	223	0	0	0
2018-09-26 	21:12:21	26.65	29.35	12.86	597	80	222	0	0	0
2018-09-26 	21:12:22	26.67	29.35	12.67	711	80	223	0	0	0
2018-09-26 	21:12:23	26.65	29.35	12.63	738	80	224	0	0	0
2018-09-26 	21:12:24	26.65	29.37	12.44	879	80	222	0	0	0
2018-09-26 	21:12:26	26.67	29.37	13.03	511	61	239	0	0	0
2018-09-26 	21:12:27	26.71	29.37	14.1	191	61	239	0	0	0
2018-09-26 	21:12:28	26.73	29.37	12.79	637	61	239	0	0	0
2018-09-26 	21:12:29	26.65	29.41	12.9	575	61	239	0	0	0
2018-09-26 	21:12:30	26.71	29.41	12.78	643	61	239	0	0	0
2018-09-26 	21:12:31	26.61	29.35	12.62	745	61	239	0	0	0
2018-09-26 	21:12:32	26.65	29.37	12.52	817	61	239	0	0	0
2018-09-26 	21:12:33	26.71	29.37	12.38	929	61	239	0	0	0
2018-09-26 	21:12:34	26.71	29.41	12.67	711	61	239	0	0	0
2018-09-26 	21:12:35	26.71	29.43	12.79	637	61	239	0	0	0
2018-09-26 	21:12:36	26.83	29.43	13.54	319	43	237	0	0	0
2018-09-26 	21:12:38	26.79	29.41	13.67	283	41	249	0	0	0
2018-09-26 	21:12:41	26.79	29.43	13.07	492	40	247	0	0	0
2018-09-26 	21:12:42	26.77	29.43	12.68	705	40	247	0	0	0
2018-09-26 	21:12:43	26.77	29.45	12.64	731	40	248	0	0	0
2018-09-26 	21:12:44	26.71	29.43	12.44	879	40	248	0	0	0
2018-09-26 	21:12:45	26.71	29.41	12.37	938	39	247	0	0	0
2018-09-26 	21:12:46	26.71	29.45	12.45	871	40	248	0	0	0
2018-09-26 	21:12:47	26.73	29.45	14.41	143	18	254	0	0	0
2018-09-26 	21:12:48	26.79	29.47	14.03	203	19	254	0	0	0
2018-09-26 	21:12:49	26.71	29.45	12.85	603	18	254	0	0	0
2018-09-26 	21:12:50	26.73	29.45	12.78	643	19	254	0	0	0
2018-09-26 	21:12:51	26.73	29.47	12.87	592	18	255	0	0	0
2018-09-26 	21:12:52	26.77	29.47	12.63	738	18	254	0	0	0
2018-09-26 	21:12:53	26.79	29.47	12.41	904	19	254	0	0	0
2018-09-26 	21:12:54	26.79	29.49	12.43	887	19	254	0	0	0
2018-09-26 	21:12:55	26.77	29.49	12.69	698	18	253	0	0	0
2018-09-26 	21:12:56	26.77	29.47	12.86	597	18	254	0	0	0
2018-09-26 	21:12:58	26.59	29.47	13.61	299	76	105	0	0	0
2018-09-26 	21:12:59	26.59	29.49	13	525	20	98	0	0	0
2018-09-26 	21:13:00	27.15	29.49	13.27	409	23	126	0	0	0
2018-09-26 	21:13:01	27.11	29.49	12.49	839	23	124	0	0	0
2018-09-26 	21:13:02	27.49	29.49	12.22	1076	24	123	0	0	0
2018-09-26 	21:13:03	27.69	29.49	11.99	1330	23	126	0	0	0
2018-09-26 	21:13:04	27.17	29.51	11.51	2070	23	125	0	0	0
2018-09-26 	21:13:05	27.17	29.53	11.9	1445	23	125	0	0	0
2018-09-26 	21:13:06	27.15	29.53	11.75	1660	22	126	0	0	0
2018-09-26 	21:13:08	27.15	29.53	12.75	661	22	127	0	0	0
2018-09-26 	21:13:09	27.11	29.51	12.75	661	23	126	0	0	0
2018-09-26 	21:13:10	27.05	29.53	12.59	766	23	126	0	0	0
2018-09-26 	21:13:11	26.73	29.51	12.21	1086	40	130	0	0	0
2018-09-26 	21:13:12	26.67	29.51	11.78	1614	40	125	0	0	0
2018-09-26 	21:13:13	26.67	29.51	11.86	1500	41	123	0	0	0
2018-09-26 	21:13:14	26.77	29.55	11.92	1419	41	129	0	0	0
2018-09-26 	21:13:15	26.71	29.55	11.87	1486	41	129	0	0	0
2018-09-26 	21:13:16	26.67	29.55	11.78	1614	41	129	0	0	0
2018-09-26 	21:13:17	26.71	29.53	11.7	1738	41	130	0	0	0
2018-09-26 	21:13:18	26.67	29.55	11.84	1528	41	128	0	0	0
2018-09-26 	21:13:19	26.71	29.55	12.26	1038	41	129	0	0	0
2018-09-26 	21:13:20	26.65	29.55	12.9	575	41	129	0	0	0
2018-09-26 	21:13:21	26.59	29.57	13.03	511	62	135	0	0	0
2018-09-26 	21:13:22	26.65	29.57	12.45	871	62	135	0	0	0
2018-09-26 	21:13:23	26.61	29.57	12.07	1236	62	135	0	0	0
2018-09-26 	21:13:24	26.61	29.55	11.9	1445	62	135	0	0	0
2018-09-26 	21:13:25	26.59	29.59	12.02	1294	62	135	0	0	0
2018-09-26 	21:13:26	26.59	29.55	12.55	794	62	135	0	0	0
2018-09-26 	21:13:27	26.61	29.59	12.94	555	62	136	0	0	0
2018-09-26 	21:13:29	26.65	29.59	12.81	625	62	134	0	0	0
2018-09-26 	21:13:30	26.61	29.59	12.65	724	62	134	0	0	0
2018-09-26 	21:13:31	26.49	29.59	12.73	673	73	125	0	0	0
2018-09-26 	21:13:32	26.49	29.59	12.44	879	79	139	0	0	0
2018-09-26 	21:13:33	26.49	29.61	12.37	938	79	140	0	0	0
2018-09-26 	21:13:34	26.49	29.61	12.34	964	80	135	0	0	0
2018-09-26 	21:13:35	26.49	29.61	12.08	1225	79	142	0	0	0
2018-09-26 	21:13:36	26.53	29.65	11.97	1355	79	138	0	0	0
2018-09-26 	21:13:37	26.53	29.65	12.08	1225	79	140	0	0	0
2018-09-26 	21:13:38	26.47	29.65	12.55	794	80	138	0	0	0
2018-09-26 	21:13:39	26.49	29.61	13.66	286	79	140	0	0	0
2018-09-26 	21:13:40	26.49	29.61	13.07	492	79	140	0	0	0
2018-09-26 	21:13:41	26.49	29.61	13.11	474	79	139	0	0	0
2018-09-26 	21:13:42	26.67	29.67	12.22	1076	80	270	0	0	0
2018-09-26 	21:13:45	26.61	29.65	12.12	1180	80	269	0	0	0
2018-09-26 	21:13:46	26.65	29.67	12.23	1067	80	270	0	0	0
2018-09-26 	21:13:47	26.55	29.67	12.35	955	80	271	0	0	0
2018-09-26 	21:13:48	26.59	29.67	13.74	265	80	270	0	0	0
2018-09-26 	21:13:49	26.55	29.67	13.47	340	80	267	0	0	0
2018-09-26 	21:13:51	26.61	29.71	12.94	555	80	269	0	0	0
2018-09-26 	21:13:52	26.67	29.71	12.85	603	62	275	0	0	0
2018-09-26 	21:13:53	26.67	29.67	13.21	433	61	275	0	0	0
2018-09-26 	21:13:54	26.71	29.71	12.52	817	61	276	0	0	0
2018-09-26 	21:13:56	26.67	29.69	12.51	824	61	276	0	0	0
2018-09-26 	21:13:57	26.67	29.73	12.76	655	61	275	0	0	0
2018-09-26 	21:13:58	26.73	29.69	13.53	322	61	276	0	0	0
2018-09-26 	21:13:59	26.65	29.71	13.85	240	61	276	0	0	0
2018-09-26 	21:14:00	26.65	29.73	13.44	350	61	276	0	0	0
2018-09-26 	21:14:01	26.65	29.71	12.87	592	61	276	0	0	0
2018-09-26 	21:14:02	26.67	29.73	13.18	445	51	265	0	0	0
2018-09-26 	21:14:03	26.65	29.75	13.18	445	41	277	0	0	0
2018-09-26 	21:14:04	26.73	29.71	12.79	637	41	277	0	0	0
2018-09-26 	21:14:05	26.65	29.73	13.05	501	41	280	0	0	0
2018-09-26 	21:14:07	26.65	29.75	14.29	160	40	280	0	0	0
2018-09-26 	21:14:08	26.67	29.75	14.36	150	40	280	0	0	0
2018-09-26 	21:14:09	26.67	29.75	14.14	184	40	281	0	0	0
2018-09-26 	21:14:11	26.65	29.73	13.51	328	40	279	0	0	0
2018-09-26 	21:14:12	26.61	29.75	13.52	325	40	280	0	0	0
2018-09-26 	21:14:13	26.67	29.75	13.09	483	19	284	0	0	0
2018-09-26 	21:14:14	26.65	29.75	13.19	441	19	285	0	0	0
2018-09-26 	21:14:15	26.67	29.77	13.28	406	19	284	0	0	0
2018-09-26 	21:14:16	26.65	29.77	13.33	387	19	284	0	0	0
2018-09-26 	21:14:17	26.65	29.77	13.59	305	19	284	0	0	0
2018-09-26 	21:14:18	26.73	29.79	14.04	201	19	284	0	0	0
2018-09-26 	21:14:19	26.71	29.79	14.22	171	19	286	0	0	0
2018-09-26 	21:14:20	26.71	29.77	13.71	273	18	285	0	0	0
2018-09-26 	21:14:21	26.67	29.79	13.74	265	19	285	0	0	0
2018-09-26 	21:14:22	26.67	29.81	13.73	268	19	286	0	0	0
2018-09-26 	21:14:23	26.71	29.81	13.7	275	39	285	0	0	0
2018-09-26 	21:14:24	26.59	29.79	12.9	575	85	168	0	0	0
2018-09-26 	21:14:25	26.67	29.81	12.08	1225	34	125	0	0	0
2018-09-26 	21:14:26	27.95	29.81	11.48	2128	23	162	0	0	0
2018-09-26 	21:14:27	27.95	29.83	12.53	809	23	162	0	0	0
2018-09-26 	21:14:28	27.95	29.81	13.02	515	23	162	0	0	0
2018-09-26 	21:14:29	27.99	29.81	13.93	223	23	162	0	0	0
2018-09-26 	21:14:30	28.05	29.81	13.11	474	23	164	0	0	0
2018-09-26 	21:14:31	28.39	29.83	13.14	461	23	163	0	0	0
2018-09-26 	21:14:32	28.33	29.83	13.16	453	23	162	0	0	0
2018-09-26 	21:14:33	27.75	29.83	12.73	673	23	162	0	0	0
2018-09-26 	21:14:34	27.61	29.83	12.6	759	23	163	0	0	0
2018-09-26 	21:14:35	27.67	29.87	12.55	794	23	162	0	0	0
2018-09-26 	21:14:36	27.69	29.87	12.91	570	23	163	0	0	0
2018-09-26 	21:14:37	27.15	29.83	13.11	474	41	168	0	0	0
2018-09-26 	21:14:38	27.11	29.87	12.64	731	41	169	0	0	0
2018-09-26 	21:14:39	27.17	29.87	12.51	824	41	169	0	0	0
2018-09-26 	21:14:40	27.11	29.89	12.3	1000	41	165	0	0	0
2018-09-26 	21:14:41	27.11	29.89	12.15	1148	42	166	0	0	0
2018-09-26 	21:14:43	27.09	29.89	12.19	1107	41	166	0	0	0
2018-09-26 	21:14:44	27.15	29.89	12.21	1086	41	166	0	0	0
2018-09-26 	21:14:45	27.11	29.89	12.1	1202	42	166	0	0	0
2018-09-26 	21:14:46	27.15	29.89	12.24	1057	41	166	0	0	0
2018-09-26 	21:14:47	26.73	29.89	12	1318	62	174	0	0	0
2018-09-26 	21:14:48	26.73	29.91	12.04	1271	62	175	0	0	0
2018-09-26 	21:14:49	26.71	29.91	12.31	991	62	175	0	0	0
2018-09-26 	21:14:50	26.73	29.91	12.56	787	62	175	0	0	0
2018-09-26 	21:14:51	26.73	29.93	12.88	586	62	176	0	0	0
2018-09-26 	21:14:52	26.67	29.93	12.99	530	62	176	0	0	0
2018-09-26 	21:14:53	26.77	29.93	12.68	705	62	176	0	0	0
2018-09-26 	21:14:54	26.73	29.93	12.56	787	62	174	0	0	0
2018-09-26 	21:14:55	26.71	29.93	12.48	847	62	176	0	0	0
2018-09-26 	21:14:57	26.73	29.93	12	1318	64	175	0	0	0
2018-09-26 	21:14:58	26.55	29.93	11.96	1368	79	188	0	0	0
2018-09-26 	21:14:59	26.59	29.93	12.37	938	79	189	0	0	0
2018-09-26 	21:15:00	26.61	29.97	13.54	319	79	188	0	0	0
2018-09-26 	21:15:01	26.61	29.95	13.66	286	79	189	0	0	0
2018-09-26 	21:15:02	26.61	29.95	13.49	334	79	189	0	0	0
2018-09-26 	21:15:03	26.59	29.97	13.03	511	79	189	0	0	0
2018-09-26 	21:15:04	26.59	29.95	12.44	879	79	187	0	0	0
2018-09-26 	21:15:05	26.49	29.97	12.14	1159	79	189	0	0	0
2018-09-26 	21:15:06	26.49	29.95	12.34	964	79	189	0	0	0
2018-09-26 	21:15:07	26.55	29.99	12.29	1009	79	187	0	0	0
2018-09-26 	21:15:08	26.59	29.99	12.51	824	80	317	0	0	0
2018-09-26 	21:15:09	26.55	29.97	14.07	196	80	320	0	0	0
2018-09-26 	21:15:10	26.55	29.99	14.18	177	80	318	0	0	0
2018-09-26 	21:15:11	26.61	29.99	12.66	718	80	323	0	0	0
2018-09-26 	21:15:12	26.55	30.01	13.05	501	80	320	0	0	0
2018-09-26 	21:15:14	26.59	30.01	12.62	745	80	319	0	0	0
2018-09-26 	21:15:16	26.55	30.01	12.21	1086	80	321	0	0	0
2018-09-26 	21:15:17	26.59	30.01	12.33	973	80	319	0	0	0
2018-09-26 	21:15:18	26.65	30.01	12.52	817	69	340	0	0	0
2018-09-26 	21:15:19	26.59	30.01	14.07	196	61	323	0	0	0
2018-09-26 	21:15:20	26.65	30.03	14.14	184	61	323	0	0	0
2018-09-26 	21:15:21	26.59	30.01	13.32	391	61	323	0	0	0
2018-09-26 	21:15:22	26.59	30.01	13.6	302	61	323	0	0	0
2018-09-26 	21:15:23	26.67	30.03	12.66	718	61	322	0	0	0
2018-09-26 	21:15:24	26.61	30.03	12.6	759	61	322	0	0	0
2018-09-26 	21:15:26	26.65	30.05	12.57	780	61	323	0	0	0
2018-09-26 	21:15:28	26.61	30.07	12.67	711	58	320	0	0	0
2018-09-26 	21:15:29	26.77	30.05	14.23	169	41	321	0	0	0
2018-09-26 	21:15:30	26.83	30.07	14.28	161	40	317	0	0	0
2018-09-26 	21:15:31	26.67	30.07	13.49	334	41	317	0	0	0
2018-09-26 	21:15:32	26.67	30.05	13.77	258	40	320	0	0	0
2018-09-26 	21:15:33	26.71	30.07	13.17	449	40	320	0	0	0
2018-09-26 	21:15:35	26.67	30.11	13.15	457	40	316	0	0	0
2018-09-26 	21:15:36	26.65	30.05	12.53	809	40	316	0	0	0
2018-09-26 	21:15:37	26.65	30.11	12.53	809	40	320	0	0	0
2018-09-26 	21:15:38	26.67	30.07	12.68	705	40	319	0	0	0
2018-09-26 	21:15:39	26.77	30.11	14.22	171	19	322	0	0	0
2018-09-26 	21:15:40	26.77	30.13	14.56	125	19	322	0	0	0
2018-09-26 	21:15:41	26.77	30.13	13.37	373	19	322	0	0	0
2018-09-26 	21:15:42	26.71	30.13	13.19	441	19	322	0	0	0
2018-09-26 	21:15:43	26.77	30.13	13.97	215	19	321	0	0	0
2018-09-26 	21:15:44	26.71	30.11	13.63	294	19	322	0	0	0
2018-09-26 	21:15:45	26.73	30.13	13.4	363	19	324	0	0	0
2018-09-26 	21:15:46	26.73	30.13	13.13	466	19	325	0	0	0
2018-09-26 	21:15:47	26.73	30.13	13.19	441	19	323	0	0	0
2018-09-26 	21:15:48	26.71	30.11	14.21	172	19	324	0	0	0
2018-09-26 	21:15:49	26.71	30.13	14.1	191	26	323	0	0	0
2018-09-26 	21:15:50	26.59	30.15	13.94	221	85	285	0	0	0
2018-09-26 	21:15:51	27.05	30.15	13.29	402	45	166	0	0	0
2018-09-26 	21:15:52	28.13	30.13	12.16	1138	24	196	0	0	0
2018-09-26 	21:15:53	28.13	30.17	13.1	479	23	196	0	0	0
2018-09-26 	21:15:54	28.17	30.15	12.69	698	23	194	0	0	0
2018-09-26 	21:15:55	28.17	30.15	12.39	920	23	195	0	0	0
2018-09-26 	21:15:56	28.19	30.17	12.21	1086	23	196	0	0	0
2018-09-26 	21:15:57	28.19	30.17	12.11	1191	23	196	0	0	0
2018-09-26 	21:15:58	28.19	30.17	12.05	1259	23	196	0	0	0
2018-09-26 	21:15:59	28.19	30.17	12.25	1047	23	196	0	0	0
2018-09-26 	21:16:00	28.13	30.19	12.9	575	23	194	0	0	0
2018-09-26 	21:16:01	28.11	30.19	13.67	283	22	194	0	0	0
2018-09-26 	21:16:03	27.43	30.17	13.15	457	40	200	0	0	0
2018-09-26 	21:16:04	27.43	30.17	12.53	809	40	201	0	0	0
2018-09-26 	21:16:05	27.43	30.19	12.09	1213	40	202	0	0	0
2018-09-26 	21:16:06	27.47	30.19	11.8	1585	41	202	0	0	0
2018-09-26 	21:16:07	27.55	30.19	11.66	1803	41	200	0	0	0
2018-09-26 	21:16:08	27.55	30.19	11.67	1786	41	200	0	0	0
2018-09-26 	21:16:09	27.49	30.17	11.75	1660	41	200	0	0	0
2018-09-26 	21:16:10	27.53	30.21	12.32	982	41	200	0	0	0
2018-09-26 	21:16:11	27.53	30.21	13.04	506	41	200	0	0	0
2018-09-26 	21:16:12	27.53	30.21	13.38	370	41	199	0	0	0
2018-09-26 	21:16:13	27.17	30.23	13.44	350	55	210	0	0	0
2018-09-26 	21:16:14	26.83	30.23	13.22	429	62	210	0	0	0
2018-09-26 	21:16:15	26.85	30.21	12.52	817	62	211	0	0	0
2018-09-26 	21:16:16	26.83	30.21	12.42	895	62	211	0	0	0
2018-09-26 	21:16:17	26.91	30.23	12.08	1225	61	211	0	0	0
2018-09-26 	21:16:18	26.85	30.21	12.03	1282	62	209	0	0	0
2018-09-26 	21:16:20	26.85	30.23	12.37	938	62	210	0	0	0
2018-09-26 	21:16:21	26.87	30.23	12.86	597	61	211	0	0	0
2018-09-26 	21:16:22	26.85	30.23	13.01	520	62	211	0	0	0
2018-09-26 	21:16:23	26.87	30.23	13.13	466	61	211	0	0	0
2018-09-26 	21:16:24	26.55	30.25	12.51	824	78	225	0	0	0
2018-09-26 	21:16:25	26.55	30.25	12.33	973	79	224	0	0	0
2018-09-26 	21:16:26	26.55	30.23	12	1318	79	225	0	0	0
2018-09-26 	21:16:27	26.55	30.27	11.88	1472	78	225	0	0	0
2018-09-26 	21:16:28	26.59	30.27	12.07	1236	79	225	0	0	0
2018-09-26 	21:16:29	26.59	30.27	12.03	1282	79	226	0	0	0
2018-09-26 	21:16:30	26.59	30.29	12.51	824	79	224	0	0	0
2018-09-26 	21:16:32	26.65	30.27	13.16	453	79	225	0	0	0
2018-09-26 	21:16:33	26.65	30.29	13.25	417	79	225	0	0	0
2018-09-26 	21:16:34	26.55	30.27	12.99	530	81	1	0	0	0
2018-09-26 	21:16:35	26.53	30.27	12.41	904	81	357	0	0	0
2018-09-26 	21:16:36	26.55	30.27	12.28	1019	81	357	0	0	0
2018-09-26 	21:16:37	26.59	30.29	12.08	1225	81	359	0	0	0
2018-09-26 	21:16:38	26.47	30.29	11.88	1472	81	0	0	0	0
2018-09-26 	21:16:39	26.53	30.27	11.9	1445	81	0	0	0	0
2018-09-26 	21:16:41	26.53	30.33	13.59	305	80	1	0	0	0
2018-09-26 	21:16:42	26.47	30.35	12.75	661	80	359	0	0	0
2018-09-26 	21:16:43	26.49	30.29	12.44	879	80	0	0	0	0
2018-09-26 	21:16:45	26.55	30.35	12.1	1202	62	10	0	0	0
2018-09-26 	21:16:46	26.55	30.33	11.91	1432	62	11	0	0	0
2018-09-26 	21:16:47	26.53	30.35	11.98	1343	62	11	0	0	0
2018-09-26 	21:16:48	26.55	30.35	12.07	1236	62	14	0	0	0
2018-09-26 	21:16:49	26.53	30.35	12.41	904	61	12	0	0	0
2018-09-26 	21:16:50	26.53	30.37	13.91	227	61	12	0	0	0
2018-09-26 	21:16:51	26.61	30.37	12.8	631	61	11	0	0	0
2018-09-26 	21:16:52	26.47	30.33	13.35	380	61	12	0	0	0
2018-09-26 	21:16:53	26.53	30.37	12.72	679	61	11	0	0	0
2018-09-26 	21:16:54	26.65	30.37	12.57	780	41	4	0	0	0
2018-09-26 	21:16:55	26.61	30.35	12.41	904	41	4	0	0	0
2018-09-26 	21:16:56	26.67	30.39	12.14	1159	41	4	0	0	0
2018-09-26 	21:16:57	26.53	30.39	11.97	1355	40	4	0	0	0
2018-09-26 	21:16:58	26.59	30.35	11.97	1355	40	4	0	0	0
2018-09-26 	21:16:59	26.59	30.37	12.91	570	40	6	0	0	0
2018-09-26 	21:17:00	26.67	30.37	13.94	221	40	8	0	0	0
2018-09-26 	21:17:01	26.59	30.39	13.8	251	40	8	0	0	0
2018-09-26 	21:17:02	26.55	30.37	13.08	488	40	8	0	0	0
2018-09-26 	21:17:03	26.65	30.39	12.79	637	40	8	0	0	0
2018-09-26 	21:17:04	26.67	30.41	12.68	705	20	8	0	0	0
2018-09-26 	21:17:05	26.71	30.37	9.77	10280	19	3	0	0	0
2018-09-26 	21:17:06	26.67	30.39	9.03	20324	19	3	0	0	0
2018-09-26 	21:17:07	26.67	30.43	9.1	19055	19	3	0	0	0
2018-09-26 	21:17:08	26.65	30.41	9.07	19588	19	2	0	0	0
2018-09-26 	21:17:09	26.71	30.41	8.96	21677	19	5	0	0	0
2018-09-26 	21:17:10	26.59	30.41	9.79	10093	19	3	0	0	0
2018-09-26 	21:17:11	26.61	30.41	13.55	316	19	3	0	0	0
2018-09-26 	21:17:12	26.61	30.41	13.4	363	19	4	0	0	0
2018-09-26 	21:17:13	26.67	30.39	11	3311	19	4	0	0	0
2018-09-26 	21:17:14	26.65	30.41	11.11	2992	24	359	0	0	0
2018-09-26 	21:17:15	26.49	30.41	11.69	1754	75	8	0	0	0
2018-09-26 	21:17:16	26.79	30.41	12.6	759	52	202	0	0	0
2018-09-26 	21:17:17	27.93	30.43	12.48	847	24	176	0	0	0
2018-09-26 	21:17:18	26.49	30.41	12.88	586	22	105	0	0	0
2018-09-26 	21:17:19	26.41	30.43	12.33	973	22	105	0	0	0
